N=30;
start=[|
25, 0, 10, 2, 26, 22, 0, 11, 0, 6, 0, 0, 0, 3, 24, 5, 0, 0, 4, 23, 20, 0, 0, 1, 0, 19, 13, 15, 0, 0|
0, 12, 28, 0, 0, 3, 19, 13, 0, 0, 0, 25, 27, 29, 1, 0, 0, 0, 16, 0, 10, 26, 0, 20, 0, 0, 11, 21, 2, 9|
7, 2, 26, 25, 17, 0, 0, 0, 20, 13, 0, 0, 24, 0, 0, 11, 16, 27, 0, 10, 0, 5, 0, 8, 3, 0, 30, 12, 0, 0|
0, 17, 0, 0, 30, 4, 26, 0, 13, 12, 23, 28, 7, 0, 0, 29, 0, 0, 15, 14, 0, 8, 11, 0, 19, 0, 0, 18, 21, 20|
30, 0, 16, 0, 23, 0, 20, 0, 9, 3, 14, 0, 26, 24, 5, 0, 0, 21, 0, 0, 27, 22, 13, 18, 15, 10, 0, 0, 0, 0|
9, 20, 0, 0, 14, 21, 0, 0, 0, 22, 0, 0, 1, 5, 30, 10, 0, 0, 26, 0, 25, 28, 29, 0, 8, 0, 27, 0, 12, 6|
0, 0, 0, 1, 0, 0, 0, 24, 0, 0, 13, 0, 0, 21, 22, 8, 28, 18, 3, 19, 0, 7, 0, 23, 14, 25, 12, 11, 6, 5|
21, 0, 0, 18, 27, 0, 25, 1, 30, 20, 0, 3, 9, 0, 28, 17, 0, 16, 0, 6, 22, 14, 12, 0, 26, 0, 0, 0, 13, 0|
8, 3, 15, 21, 19, 0, 0, 0, 0, 0, 0, 24, 23, 26, 0, 0, 29, 14, 0, 27, 0, 4, 22, 12, 0, 5, 2, 25, 20, 0|
0, 27, 24, 0, 0, 26, 0, 0, 15, 19, 30, 7, 0, 0, 14, 16, 2, 28, 0, 13, 18, 23, 5, 0, 0, 17, 9, 6, 0, 0|
22, 0, 0, 12, 0, 0, 7, 9, 14, 24, 0, 0, 0, 23, 8, 0, 18, 25, 20, 0, 13, 2, 0, 27, 17, 29, 0, 0, 16, 11|
3, 0, 0, 15, 0, 0, 27, 0, 0, 16, 11, 0, 0, 0, 0, 7, 0, 29, 24, 28, 23, 0, 19, 9, 18, 0, 20, 1, 5, 4|
19, 15, 1, 23, 22, 0, 0, 25, 0, 2, 7, 17, 0, 11, 21, 13, 0, 0, 0, 5, 0, 0, 0, 0, 29, 14, 0, 0, 10, 12|
0, 14, 0, 0, 9, 17, 0, 0, 3, 7, 20, 0, 5, 0, 19, 0, 30, 0, 25, 0, 0, 0, 0, 11, 22, 27, 8, 16, 18, 13|
11, 0, 13, 28, 4, 1, 0, 0, 18, 23, 2, 0, 0, 6, 0, 25, 7, 0, 8, 0, 15, 9, 21, 0, 0, 20, 0, 0, 0, 27|
16, 0, 0, 30, 5, 12, 0, 0, 0, 8, 29, 2, 14, 17, 0, 4, 22, 23, 7, 24, 21, 0, 0, 6, 0, 0, 0, 0, 19, 18|
13, 26, 19, 24, 0, 0, 10, 0, 0, 30, 21, 29, 18, 0, 20, 0, 27, 0, 0, 0, 14, 0, 1, 28, 0, 16, 17, 0, 25, 23|
14, 25, 8, 6, 1, 23, 0, 16, 0, 0, 0, 0, 0, 10, 2, 0, 15, 26, 19, 0, 0, 20, 9, 24, 0, 7, 0, 22, 0, 3|
0, 0, 0, 0, 21, 29, 0, 23, 19, 0, 0, 11, 17, 18, 4, 2, 0, 0, 13, 20, 0, 6, 25, 30, 12, 15, 0, 0, 14, 0|
10, 7, 5, 17, 0, 16, 8, 22, 29, 9, 0, 6, 0, 27, 0, 0, 0, 0, 0, 30, 4, 13, 0, 0, 20, 0, 23, 2, 26, 0|
12, 23, 18, 13, 0, 14, 4, 30, 28, 0, 5, 0, 0, 0, 25, 0, 8, 22, 0, 17, 2, 0, 0, 10, 1, 0, 0, 19, 0, 16|
0, 0, 0, 0, 0, 0, 0, 17, 5, 0, 27, 12, 19, 0, 9, 30, 0, 10, 11, 0, 1, 16, 18, 0, 7, 8, 15, 0, 22, 29|
5, 0, 30, 8, 13, 19, 18, 2, 0, 0, 0, 9, 20, 0, 0, 28, 0, 1, 12, 0, 3, 0, 0, 4, 0, 21, 0, 10, 23, 26|
0, 6, 0, 0, 0, 25, 5, 27, 2, 0, 0, 15, 0, 7, 26, 0, 14, 13, 9, 16, 0, 11, 30, 0, 4, 0, 22, 28, 0, 0|
0, 29, 0, 0, 10, 2, 23, 26, 0, 15, 4, 14, 6, 30, 0, 21, 5, 19, 1, 0, 0, 0, 0, 0, 0, 0, 0, 20, 11, 24|
0, 21, 22, 0, 0, 18, 29, 0, 4, 11, 19, 0, 2, 14, 0, 0, 1, 12, 0, 7, 28, 10, 16, 0, 0, 3, 26, 9, 0, 0|
0, 10, 6, 0, 2, 13, 17, 28, 11, 27, 3, 5, 0, 15, 0, 0, 0, 20, 0, 9, 24, 0, 0, 26, 0, 18, 21, 0, 0, 30|
23, 0, 4, 26, 18, 0, 3, 5, 12, 0, 10, 20, 29, 0, 0, 9, 6, 0, 0, 0, 0, 17, 28, 2, 21, 30, 0, 0, 8, 0|
6, 28, 23, 5, 0, 0, 21, 15, 8, 0, 0, 1, 22, 0, 0, 14, 10, 2, 0, 11, 0, 0, 27, 0, 9, 0, 3, 29, 0, 7|
0, 13, 20, 22, 0, 8, 1, 12, 21, 0, 24, 0, 25, 0, 16, 0, 9, 0, 10, 15, 19, 0, 3, 0, 0, 0, 28, 27, 0, 0|];
